 &control
    calculation='nscf'
    prefix='si',
    pseudo_dir = '/Users/virgrammid/Desktop/Lab_3/si/pseudo/'
    outdir='/Users/virgrammid/Desktop/Lab_3/si/tmp'

/

&system    
    ibrav=  2, celldm(1) =10.327 , nat=  2, ntyp= 1,
    ecutwfc =30.0, nbnd=8

/
 &electrons
    conv_thr = 1.0e-10
    mixing_beta = 0.7 

/

ATOMIC_SPECIES
 Si  28.086  Si.rel-pbe-rrkj.UPF

ATOMIC_POSITIONS
 Si 0.00 0.00 0.00
 Si 0.25 0.25 0.25

K_POINTS automatic
 32 32 32 0 0 0 


